(set-option :produce-models true)
(set-logic QF_UF)
(declare-fun p0() Bool)
(declare-fun p8() Bool)
(declare-fun p10() Bool)
(declare-fun p13() Bool)
(declare-fun p3() Bool)
(declare-fun p2() Bool)
(declare-fun p7() Bool)
(declare-fun p6() Bool)
(declare-fun p1() Bool)
(declare-fun p11() Bool)
(declare-fun p4() Bool)
(declare-fun p9() Bool)
(declare-fun p12() Bool)
(declare-fun p14() Bool)
(declare-fun p5() Bool)
(assert
(and (or (not p0) (not p8) p8) (or p10 p13 p3) (or (not p2) p7 (not p6)) (or (not p1) (not p11) (not p4)) (or (not p0) p1 p9) (or (not p11) (not p1) p13) (or p8 (not p7) (not p9)) (or (not p2) p0 (not p8)) (or p3 p12 (not p9)) (or p7 (not p3) (not p4)) (or p6 p8 (not p12)) (or (not p7) (not p1) p3) (or p1 p7 (not p4)) (or p13 (not p14) p3) (or p11 (not p12) p2) (or (not p1) p10 p14) (or p3 p1 p12) (or (not p11) p6 p13) (or p8 p10 p11) (or (not p13) (not p1) (not p6)) (or (not p7) p10 p6) (or p1 p10 p0) (or p6 p1 (not p9)) (or p14 (not p3) (not p13)) (or (not p4) (not p12) (not p13)) (or p8 (not p6) (not p14)) (or (not p1) p9 p2) (or p1 p4 (not p6)) (or p1 (not p3) (not p9)) (or p10 (not p7) (not p5)) (or p9 (not p5) p13) (or p12 (not p0) p0) (or (not p10) (not p11) (not p6)) (or p7 p11 (not p3)) (or p14 p6 (not p10)) (or (not p5) p0 p1) (or (not p0) p6 p11) (or p6 p12 (not p7)) (or p12 p2 p10) (or p2 p11 (not p8)) (or p4 p0 (not p8)) (or (not p11) p1 (not p4)) (or p0 (not p13) p11) (or p6 (not p6) p4) (or p4 (not p0) (not p13)) (or (not p8) (not p7) (not p9)) (or p13 (not p10) p12) (or (not p11) (not p0) (not p11)) (or (not p4) (not p13) p12) (or (not p2) (not p9) (not p10)) (or p1 (not p13) p2) (or p5 (not p3) (not p9)) (or (not p8) (not p9) (not p1)) (or (not p0) (not p6) (not p9)) (or p8 (not p4) p0) (or (not p14) p9 (not p6)) (or (not p4) p8 p11) (or (not p11) p7 p14) (or p13 p6 p4) (or (not p7) p3 (not p12)) (or (not p12) (not p4) (not p9)) (or (not p11) (not p0) p0) (or (not p4) (not p1) p13) (or (not p8) (not p3) p1) (or (not p14) p4 (not p7)) (or p5 (not p0) p6) (or p6 (not p8) p8) (or p7 p11 p3) (or p0 (not p10) (not p14)))
)
(check-sat)
(get-model)
